nN = 5;
nR = 25;
nH = 2;

a = [[24, 21, 17, 22, 19, 18, 20, 21, 15, 21, 17, 25, 18, 18, 15, 20, 16, 19, 16, 24, 16, 22, 18, 17, 22], [20, 23, 23, 21, 24, 22, 21, 24, 15, 17, 22, 17, 20, 16, 24, 18, 19, 21, 22, 18, 23, 18, 23, 16, 24], [22, 18, 24, 22, 17, 17, 16, 15, 25, 23, 16, 16, 19, 21, 24, 20, 24, 15, 15, 23, 24, 19, 20, 23, 25], [22, 22, 19, 21, 16, 25, 16, 16, 16, 16, 17, 17, 18, 15, 22, 18, 15, 20, 15, 17, 25, 15, 19, 20, 20], [21, 21, 24, 25, 24, 19, 23, 17, 20, 24, 21, 16, 19, 15, 16, 15, 25, 25, 15, 15, 21, 16, 16, 19, 15]];
c = [[[0, 0, 0, 0, 0, 0, 0, 0, 0, 0, 0, 0, 0, 0, 0, 0, 0, 0, 0, 0, 0, 0, 0, 0, 0], [35, 39, 46, 43, 41, 44, 41, 44, 33, 38, 48, 48, 50, 35, 45, 47, 41, 32, 35, 45, 32, 37, 38, 31, 36], [30, 37, 48, 39, 43, 34, 38, 33, 47, 37, 35, 47, 31, 46, 40, 42, 36, 47, 50, 49, 49, 44, 45, 41, 34], [46, 38, 34, 50, 48, 37, 50, 48, 46, 32, 33, 41, 33, 35, 50, 39, 46, 44, 50, 43, 49, 34, 46, 42, 39], [39, 33, 30, 39, 36, 45, 43, 42, 46, 38, 40, 37, 38, 43, 45, 32, 46, 32, 35, 40, 49, 50, 41, 37, 47]], [[0, 0, 0, 0, 0, 0, 0, 0, 0, 0, 0, 0, 0, 0, 0, 0, 0, 0, 0, 0, 0, 0, 0, 0, 0], [0, 0, 0, 0, 0, 0, 0, 0, 0, 0, 0, 0, 0, 0, 0, 0, 0, 0, 0, 0, 0, 0, 0, 0, 0], [30, 45, 45, 42, 42, 41, 37, 30, 32, 41, 43, 34, 31, 44, 38, 44, 48, 40, 45, 44, 48, 35, 33, 35, 49], [38, 48, 50, 46, 39, 30, 38, 34, 46, 48, 50, 37, 45, 41, 40, 34, 35, 48, 39, 43, 45, 36, 47, 50, 47], [49, 49, 49, 34, 37, 47, 47, 31, 48, 30, 44, 37, 34, 43, 33, 37, 41, 48, 36, 34, 35, 37, 50, 44, 46]], [[0, 0, 0, 0, 0, 0, 0, 0, 0, 0, 0, 0, 0, 0, 0, 0, 0, 0, 0, 0, 0, 0, 0, 0, 0], [0, 0, 0, 0, 0, 0, 0, 0, 0, 0, 0, 0, 0, 0, 0, 0, 0, 0, 0, 0, 0, 0, 0, 0, 0], [0, 0, 0, 0, 0, 0, 0, 0, 0, 0, 0, 0, 0, 0, 0, 0, 0, 0, 0, 0, 0, 0, 0, 0, 0], [30, 31, 42, 40, 30, 47, 41, 39, 34, 34, 37, 35, 46, 41, 33, 49, 42, 49, 47, 48, 42, 35, 32, 33, 36], [45, 50, 30, 32, 43, 35, 31, 45, 33, 33, 48, 40, 44, 44, 41, 44, 33, 39, 50, 48, 31, 39, 33, 44, 37]], [[0, 0, 0, 0, 0, 0, 0, 0, 0, 0, 0, 0, 0, 0, 0, 0, 0, 0, 0, 0, 0, 0, 0, 0, 0], [0, 0, 0, 0, 0, 0, 0, 0, 0, 0, 0, 0, 0, 0, 0, 0, 0, 0, 0, 0, 0, 0, 0, 0, 0], [0, 0, 0, 0, 0, 0, 0, 0, 0, 0, 0, 0, 0, 0, 0, 0, 0, 0, 0, 0, 0, 0, 0, 0, 0], [0, 0, 0, 0, 0, 0, 0, 0, 0, 0, 0, 0, 0, 0, 0, 0, 0, 0, 0, 0, 0, 0, 0, 0, 0], [37, 50, 37, 43, 34, 36, 44, 42, 38, 44, 37, 46, 41, 45, 42, 39, 43, 34, 36, 37, 45, 36, 42, 46, 37]], [[0, 0, 0, 0, 0, 0, 0, 0, 0, 0, 0, 0, 0, 0, 0, 0, 0, 0, 0, 0, 0, 0, 0, 0, 0], [0, 0, 0, 0, 0, 0, 0, 0, 0, 0, 0, 0, 0, 0, 0, 0, 0, 0, 0, 0, 0, 0, 0, 0, 0], [0, 0, 0, 0, 0, 0, 0, 0, 0, 0, 0, 0, 0, 0, 0, 0, 0, 0, 0, 0, 0, 0, 0, 0, 0], [0, 0, 0, 0, 0, 0, 0, 0, 0, 0, 0, 0, 0, 0, 0, 0, 0, 0, 0, 0, 0, 0, 0, 0, 0], [0, 0, 0, 0, 0, 0, 0, 0, 0, 0, 0, 0, 0, 0, 0, 0, 0, 0, 0, 0, 0, 0, 0, 0, 0]]];

q = [[[11, 106], [6, 110], [5, 121], [21, 113], [12, 111], [12, 111], [6, 119], [25, 108], [11, 116], [7, 114], [11, 124], [22, 110], [18, 125], [16, 109], [12, 110], [7, 112], [7, 107], [9, 119], [9, 105], [13, 120], [15, 121], [22, 111], [23, 118], [24, 106], [11, 107]], [[22, 109], [25, 118], [6, 107], [21, 125], [17, 120], [18, 115], [10, 113], [18, 124], [25, 123], [16, 106], [14, 115], [5, 106], [5, 119], [8, 107], [20, 112], [6, 125], [16, 113], [12, 125], [8, 106], [8, 120], [19, 107], [5, 109], [15, 120], [12, 107], [25, 118]], [[8, 116], [10, 120], [11, 117], [24, 107], [8, 122], [7, 119], [14, 111], [6, 116], [25, 108], [6, 116], [13, 119], [25, 109], [11, 123], [15, 112], [9, 125], [17, 106], [6, 124], [8, 111], [25, 113], [21, 123], [17, 113], [25, 122], [19, 108], [16, 117], [10, 114]], [[18, 107], [13, 120], [22, 123], [7, 109], [20, 106], [8, 124], [10, 124], [17, 107], [7, 115], [12, 109], [20, 118], [17, 115], [6, 105], [15, 112], [18, 111], [23, 114], [10, 119], [10, 125], [19, 114], [25, 111], [25, 115], [13, 123], [16, 118], [20, 116], [15, 112]], [[23, 111], [14, 121], [16, 124], [6, 117], [22, 113], [21, 121], [9, 107], [13, 113], [8, 120], [18, 108], [11, 106], [25, 106], [9, 121], [11, 115], [19, 107], [20, 116], [17, 116], [7, 117], [10, 123], [20, 105], [7, 107], [16, 111], [20, 113], [17, 118], [10, 116]]];
Q = [[53, 454], [56, 460], [56, 463], [61, 460], [59, 457]];
